WARNING: for repeatability, setting FPU to use double precision
============================[ Problem Statistics ]=============================
|                                                                             |
|  Number of variables:           100                                         |
|  Number of clauses:             449                                         |
|  Parse time:                   0.00 s                                       |
|  Eliminated clauses:           0.00 Mb                                      |
|  Simplification time:          0.00 s                                       |
|                                                                             |
============================[ Search Statistics ]==============================
| Conflicts |          ORIGINAL         |          LEARNT          | Progress |
|           |    Vars  Clauses Literals |    Limit  Clauses Lit/Cl |          |
===============================================================================
|       100 |      98      445     1343 |      163      100      8 |  0.010 % |
===============================================================================
restarts              : 2
conflicts             : 134            (48201 /sec)
decisions             : 175            (0.00 % random) (62950 /sec)
propagations          : 3207           (1153597 /sec)
conflict literals     : 1043           (10.93 % deleted)
Memory used           : 13.00 MB
CPU time              : 0.00278 s

SATISFIABLE
